SCIP version 5.0.0 [precision: 8 byte] [memory: block] [mode: optimized] [LP solver: NONE] [GitHash: 3bbd232]
Copyright (C) 2002-2017 Konrad-Zuse-Zentrum fuer Informationstechnik Berlin (ZIB)

External codes: 
  Readline EditLine w  GNU library for command line editing (gnu.org/s/readline)
  CppAD 20160000.1     Algorithmic Differentiation of C++ algorithms developed by B. Bell (www.coin-or.org/CppAD)
  ZLIB 1.2.5           General purpose compression library by J. Gailly and M. Adler (zlib.net)
  GMP 6.1.2            GNU Multiple Precision Arithmetic Library developed by T. Granlund (gmplib.org)

user parameter file <scip.set> not found - using default parameters

read problem <../../Split_data/output/spectf/0/0_sample_spectf.logreg>
============

File name	:	../../Split_data/output/spectf/0/0_sample_spectf.logreg
Problem name 	:	0_sample_spectf
Number of data	:	214
Number of var	:	44
The given data has linear independence

[dim=1] time: 0.014972
[dim=2] time: 0.023408
[dim=3] time: 0.030827
[dim=4] time: 0.037405
[dim=5] time: 0.044302
[dim=6] time: 0.05104
[dim=7] Time of forward = 0.057809sec.
AIC: 154.922
k: 6

[dim=44] time: 0.037887
[dim=43] time: 0.055257
[dim=42] time: 0.068104
[dim=41] time: 0.081567
[dim=40] time: 0.09555
[dim=39] time: 0.110491
[dim=38] time: 0.125506
[dim=37] time: 0.139771
[dim=36] time: 0.150601
[dim=35] time: 0.163931
[dim=34] time: 0.173754
[dim=33] time: 0.185883
[dim=32] time: 0.195991
[dim=31] time: 0.20617
[dim=30] time: 0.216032
[dim=29] time: 0.225496
[dim=28] time: 0.234848
[dim=27] time: 0.244034
[dim=26] time: 0.252044
[dim=25] time: 0.260093
[dim=24] time: 0.268276
[dim=23] time: 0.275011
[dim=22] time: 0.280911
[dim=21] Time of backward = 0.287585sec.
AIC: 150.523
k: 22
